p cnf 155 272
c ind 1 2 3 4 5 6 7 8 9 10 11 12 13 14 15 16 17 18 19 20 21 22 23 24 25 26 27 28 29 30 31 32 33 34 35 36 37 38 39 40 41 42 43 44 45 46 47 48 49 50 51 52 53 54 55 56 57 58 59 60 61 62 63 64 65 66 67 68 69 70 71 72 73 74 75 76 77 78 79 80 81 82 83 84 85 86 87 88 89 90 91 92 93 94 95 96 97 98 99 100 101 102 103 104 105 106 107 108 109 110 111 112 113 114 115 116 117 118 119 120 121 122 123 124 125 126 127 128 129 130 131 132 133 134 135 136 137 138 139 140 141 142 143 144 145 146 147 148 149 150 151 152 153 154 155 0
1 2 -3 0
4 5 -6 0
7 8 9 0
10 11 -12 0
13 14 -11 0
15 16 -17 0
-18 19 20 0
21 22 -23 0
24 25 -26 0
27 18 22 0
28 29 -30 0
31 3 -32 0
-33 34 35 0
36 37 -5 0
38 39 -40 0
41 42 -8 0
43 -44 45 0
46 47 -48 0
49 50 -39 0
-51 52 53 0
54 32 -55 0
33 56 -57 0
58 59 -60 0
61 62 -63 0
64 65 -66 0
67 68 -65 0
69 70 71 0
72 73 -74 0
75 76 -2 0
23 18 -21 0
77 78 79 0
80 -81 82 0
83 21 84 0
85 86 -87 0
88 -72 89 0
90 91 -92 0
93 17 -47 0
94 -89 95 0
35 -96 97 0
-25 26 62 0
98 99 -95 0
100 74 -101 0
-43 29 102 0
-19 103 25 0
104 55 -16 0
19 105 -103 0
-106 78 84 0
107 40 -37 0
108 66 -91 0
109 110 -68 0
78 111 112 0
-77 -79 112 0
113 60 -114 0
115 101 -116 0
117 19 118 0
119 105 25 0
120 12 -121 0
122 -42 81 0
123 -70 92 0
24 124 62 0
118 18 -20 0
125 126 -59 0
127 128 -14 0
129 -130 131 0
21 106 -78 0
132 114 -82 0
133 -126 6 0
134 121 -135 0
136 116 -128 0
137 -76 138 0
139 -138 135 0
140 48 -110 0
-129 141 86 0
72 -89 0
-106 -130 0
-69 -70 0
-93 -17 0
-112 77 0
-100 -74 0
116 -101 0
-73 -72 0
114 -60 0
53 142 0
-53 -142 0
87 -85 0
-120 -12 0
19 -25 0
129 -86 0
45 -34 0
66 -65 0
78 -21 0
-84 106 0
-35 33 0
-41 -42 0
-136 -116 0
21 -18 0
-50 -49 0
-109 -110 0
18 -19 0
143 -144 0
-105 103 0
-4 -5 0
47 -17 0
-25 -103 0
145 -96 0
-123 -92 0
32 -3 0
11 -14 0
-58 -59 0
-75 -76 0
-20 -19 0
-84 -83 0
-99 -98 0
-23 -18 0
-27 -18 0
-118 -18 0
-54 -32 0
-104 -55 0
130 -129 0
51 45 0
2 -76 0
-88 -89 0
96 -102 0
-22 -21 0
143 146 0
3 -2 0
-84 -78 0
-31 -3 0
85 -147 0
148 79 0
-148 -79 0
102 -53 0
149 -146 0
57 23 0
110 -48 0
74 -72 0
-119 -25 0
-132 -114 0
150 -98 0
-77 -78 0
-36 -37 0
63 146 0
-134 -121 0
-22 23 0
-140 -48 0
101 -74 0
17 -16 0
-145 96 0
-151 149 0
103 51 0
-35 -34 0
-15 -16 0
144 -143 0
48 -47 0
-33 57 0
-24 -25 0
37 -40 0
42 -81 0
-27 -22 0
-112 -111 0
30 -152 0
-43 -45 0
-24 26 0
-13 -14 0
-29 -102 0
25 -62 0
-106 -21 0
130 106 0
-131 -57 0
-67 -68 0
91 -66 0
-1 -2 0
-64 -65 0
-90 -91 0
56 44 0
-56 -44 0
-115 -101 0
-105 -19 0
5 -37 0
-147 145 0
153 -49 0
-86 -141 0
141 -56 0
152 -154 0
63 -61 0
144 -30 0
57 131 0
30 -144 0
-139 -135 0
121 -12 0
151 -149 0
-108 -66 0
-29 43 0
128 -116 0
-86 -85 0
16 -55 0
-9 -8 0
68 -110 0
65 -68 0
87 -34 0
-102 53 0
-94 -95 0
126 -6 0
44 20 0
-146 -143 0
-52 -53 0
-10 -11 0
-44 -20 0
40 -39 0
-38 -39 0
-112 79 0
70 -92 0
-141 56 0
-124 -24 0
55 -32 0
-79 -78 0
-33 -56 0
-97 -152 0
26 142 0
-127 -128 0
-83 -21 0
-71 -70 0
-131 -129 0
-149 146 0
14 -128 0
8 -42 0
20 -118 0
60 -59 0
39 -49 0
-107 -40 0
-146 -63 0
34 -87 0
59 -126 0
-119 -105 0
-23 -57 0
-51 -45 0
-125 -126 0
-122 -81 0
76 -138 0
-28 -29 0
-61 -62 0
-117 -118 0
30 -28 0
154 147 0
138 -135 0
-46 -47 0
-52 51 0
-117 -19 0
-43 44 0
34 -45 0
-111 -78 0
-124 -62 0
89 -95 0
-103 -51 0
12 -11 0
-96 102 0
-7 -8 0
-137 -138 0
135 -121 0
-133 -6 0
-155 -61 0
92 -91 0
-62 -26 0
6 -5 0
152 -30 0
-80 -82 0
95 -98 0
-113 -60 0
82 -114 0
155 61 0
81 -82 0
-142 -26 0
